NAME : LPS-n24-m273
COMMENT : (Lartu-Peter-Santi Plot, instance 8673 out of 39200. 24 customers.)
TYPE : CVRP
DIMENSION : 24
EDGE_WEIGHT_TYPE : EUC_2D
CAPACITY : 141
NODE_COORD_SECTION
 1 96 26
 2 45 12
 3 22 100
 4 66 37
 5 90 78
 6 92 75
 7 35 53
 8 86 75
 9 47 76
 10 74 7
 11 78 81
 12 88 30
 13 48 63
 14 80 100
 15 53 92
 16 2 51
 17 97 59
 18 21 87
 19 72 54
 20 99 76
 21 37 45
 22 88 83
 23 68 56
 24 57 84
DEMAND_SECTION
1 0
2 47
3 120
4 56
5 63
6 2
7 23
8 129
9 2
10 124
11 43
12 44
13 111
14 118
15 25
16 82
17 92
18 6
19 106
20 43
21 137
22 79
23 99
24 133
DEPOT_SECTION
 1
 -1
EOF
